<number of tasks>
50

<cycle time>
1000

<order strength>
0.201


<task times>
1 78
2 51
3 46
4 191
5 189
6 221
7 102
8 27
9 102
10 165
11 182
12 95
13 237
14 109
15 23
16 167
17 74
18 180
19 120
20 236
21 53
22 127
23 221
24 90
25 184
26 63
27 41
28 253
29 90
30 163
31 128
32 189
33 102
34 102
35 84
36 306
37 81
38 96
39 102
40 238
41 96
42 97
43 82
44 285
45 165
46 28
47 202
48 153
49 112
50 113

<precedence relations>
1,23
2,9
3,10
4,13
5,11
6,8
7,12
8,23
9,16
10,18
11,14
11,17
11,21
12,15
13,19
13,20
13,22
14,23
15,23
16,24
17,25
21,26
22,27
22,28
23,29
23,30
23,31
23,32
23,36
24,34
25,33
27,36
28,35
28,37
29,41
29,42
33,39
36,40
37,38
38,43
38,47
41,44
41,45
41,46
43,48
44,50
46,49

<end>
